200
[21,22,23,28,30,35,37,38,40,44,47,48,51,54,56,61,63,64,69,70,72,73,82,83,85,90,92,93,95,96,97,104,105,112,115,124,126,127,130,132,137,138,139]
[1,1,1,1,1,1,1,1,1,2,2,1,1,1,1,1,1,1,2,1,1,1,1,1,1,1,1,1,1,2,1,3,1,1,1,1,1,1,2,1,1,1,1]
